54442
11 25 545
25 31 299
31 27 4460
27 1 4123
1 33 7621
33 42 4807
42 12 2092
12 18 768
18 4 606
4 30 380
30 47 944
47 54 491
54 34 401
34 53 396
53 23 388
23 49 1461
49 26 560
26 55 397
55 28 487
28 6 404
6 3 385
3 43 1096
43 40 1279
40 51 1042
51 7 770
7 37 517
37 5 467
5 13 723
13 41 686
41 32 362
32 35 967
35 24 296
24 20 740
20 50 763
50 38 1180
38 8 368
8 44 383
44 19 1282
19 48 897
48 17 415
17 21 638
21 29 516
29 22 544
22 10 117
10 9 803
9 14 471
14 16 907
16 39 451
39 46 214
46 36 402
36 15 679
15 52 631
52 2 598
2 45 787
45 11 436
